10
20
687751
0
0
63 60 58 59 62 58 59 58 61 61 62 59 57 61 57 59 57 58 58 59
1
0
33 31 33 35 29 34 32 32 31 31 28 32 33 34 31 34 35 33 29 32
2
0
75 74 78 73 73 73 78 74 74 76 74 77 75 78 79 77 79 76 73 76
3
0
58 53 51 56 52 54 56 53 55 54 57 55 58 54 55 57 54 52 55 56
4
0
57 52 54 59 54 58 52 56 53 54 54 55 52 53 53 55 56 52 50 55
5
0
49 47 49 49 53 46 46 48 52 47 45 49 50 47 46 49 50 53 47 51
6
0
47 53 53 53 54 56 51 51 50 52 51 54 52 50 52 50 52 51 52 49
7
0
37 39 38 39 36 37 40 38 38 41 37 39 40 39 37 37 39 40 37 40
8
0
66 66 65 63 64 61 66 68 63 62 69 61 62 63 64 63 66 68 62 66
9
0
40 38 48 41 46 44 37 42 43 41 42 40 40 42 40 41 44 43 41 42
